StringID       Type          x          y  stock-at-call-time  call-time   Due-Date  Service-Time
        D0          d        0.0        0.0                 0.0            350.0       1236.0            0.0
        S0          f        0.0        8.8                 0.0              0.0       1000.0              0.0
        S1          f       33.0       88.0                 0.0              0.0       1236.0            0.0
        S2          f       33.0        8.8                 0.0              0.0       1236.0              0.0
        C1         c        11.0       8.8               30.0              18.0       678.0              15.0      
        C2         c        38.5       17.6              30.0              36.0       696.0              15.0      
        C3         c        11.0       79.2              30.0              70.0       730.0              15.0      
        C4         c        49.5       44.0              30.0              80.0       740.0              15.0      
        C5         c        5.5        88.0              30.0              90.0       750.0              15.0      
        C6         c        33.0       88.0              30.0              97.0       757.0              15.0      
        C7         c        38.5       26.4              30.0              136.0      796.0              15.0      
        C8         c        55.0       8.8               30.0              155.0      815.0              15.0      
        C9         c        44.0       8.8               30.0              167.0      827.0              15.0      
        C10        c        11.0       52.8              30.0              190.0      850.0              15.0      
        C11        c        55.0       70.4              30.0              205.0      865.0              15.0      
        C12        c        27.5       26.4              30.0              214.0      874.0              15.0      
        C13        c        55.0       88.0              30.0              230.0      890.0              15.0      
        C14        c        27.5       70.4              30.0              250.0      910.0              15.0      
        C15        c        49.5       52.8              30.0              263.0      923.0              15.0      
        C16        c        11.0       17.6              30.0              269.0      929.0              15.0      
        C17        c        33.0       79.2              30.0              280.0      940.0              15.0      
        C18        c        5.5        26.4              30.0              307.0      967.0              15.0      
        C19        c        11.0       26.4              30.0              315.0      975.0              15.0      
        C20        c        11.0       88.0              30.0              355.0      1015.0             15.0      

Q Vehicle fuel tank capacity /1500/
e Vehicle now fuel tank capacity /700/
C Vehicle load capacity /250.0/
r fuel consumption rate /1.0/
g inverse refueling rate /0.1/
v average Velocity /1.0/
